% seed = 0

mint = 35;
% maxt = 85;

nActs = 27;
dur = [0,2,4,8,1,3,1,9,2,2,9,3,5,2,2,2,4,2,2,1,2,5,3,3,6,2,0];

nSkills = 3;
sreq = [| 0,0,0,
	| 3,0,2,
	| 0,4,3,
	| 5,2,0,
	| 0,1,4,
	| 5,0,4,
	| 3,0,2,
	| 2,4,4,
	| 3,2,2,
	| 3,2,0,
	| 3,0,2,
	| 4,0,4,
	| 1,4,0,
	| 0,0,2,
	| 0,5,4,
	| 1,0,4,
	| 0,5,4,
	| 3,2,3,
	| 5,3,3,
	| 2,4,6,
	| 1,0,2,
	| 3,0,0,
	| 0,0,4,
	| 0,2,1,
	| 0,1,3,
	| 2,0,2,
	| 0,0,0, |];

% SumOfsreq = 155;

nResources = 22;
mastery = [| true,false,false,
	| true,false,false,
	| true,false,false,
	| false,true,true,
	| false,true,true,
	| false,true,false,
	| false,true,true,
	| false,true,false,
	| false,true,true,
	| false,false,true,
	| true,false,true,
	| true,false,false,
	| false,false,true,
	| true,false,true,
	| true,false,true,
	| true,false,true,
	| false,true,false,
	| false,true,false,
	| false,true,false,
	| true,false,false,
	| true,true,true,
	| false,true,false, |];

nPrecs = 38;
pred = [1,1,1,2,3,3,3,4,5,6,7,7,8,9,10,10,11,11,12,12,13,14,14,14,15,16,17,18,18,19,20,20,21,22,23,24,25,26];
succ = [2,3,4,5,5,6,8,7,10,9,11,12,10,13,13,15,13,14,13,16,20,17,18,19,17,17,23,21,24,21,21,22,26,25,26,25,27,27];

nUnrels = 146;
unpred = [2,2,2,2,2,2,2,2,2,2,2,2,2,3,3,3,3,3,3,3,3,3,4,4,4,4,4,4,5,5,5,5,5,5,5,5,5,5,5,6,6,6,6,6,6,6,6,6,6,6,6,6,7,7,7,7,8,8,8,8,8,8,8,8,9,9,9,9,9,9,9,9,9,9,9,10,10,10,10,10,10,10,11,11,11,12,12,12,12,12,13,13,13,13,13,13,13,13,14,14,14,14,15,15,15,15,15,15,15,15,16,16,16,16,16,16,16,17,17,17,17,17,17,17,18,18,18,18,19,19,19,19,19,20,20,21,21,21,21,22,22,22,23,23,24,25];
unsucc = [3,4,6,7,8,9,11,12,14,16,18,19,24,4,7,11,12,14,16,18,19,24,5,6,8,9,10,15,6,7,8,9,11,12,14,16,18,19,24,7,8,10,11,12,14,15,16,17,18,19,23,24,8,9,10,15,9,11,12,14,16,18,19,24,10,11,12,14,15,16,17,18,19,23,24,11,12,14,16,18,19,24,12,15,16,14,15,18,19,24,14,15,16,17,18,19,23,24,15,16,20,22,16,18,19,20,21,22,24,25,18,19,20,21,22,24,25,18,19,20,21,22,24,25,19,20,22,23,20,22,23,24,25,23,24,22,23,24,25,23,24,26,24,25,26,26];

USEFUL_RES = [{},
	{1,2,3,4,5,7,9,10,11,12,13,14,15,16,20,21},
	{4,5,6,7,8,9,10,11,13,14,15,16,17,18,19,21,22},
	{1,2,3,4,5,6,7,8,9,11,12,14,15,16,17,18,19,20,21,22},
	{4,5,6,7,8,9,10,11,13,14,15,16,17,18,19,21,22},
	{1,2,3,4,5,7,9,10,11,12,13,14,15,16,20,21},
	{1,2,3,4,5,7,9,10,11,12,13,14,15,16,20,21},
	{1,2,3,4,5,6,7,8,9,10,11,12,13,14,15,16,17,18,19,20,21,22},
	{1,2,3,4,5,6,7,8,9,10,11,12,13,14,15,16,17,18,19,20,21,22},
	{1,2,3,4,5,6,7,8,9,11,12,14,15,16,17,18,19,20,21,22},
	{1,2,3,4,5,7,9,10,11,12,13,14,15,16,20,21},
	{1,2,3,4,5,7,9,10,11,12,13,14,15,16,20,21},
	{1,2,3,4,5,6,7,8,9,11,12,14,15,16,17,18,19,20,21,22},
	{4,5,7,9,10,11,13,14,15,16,21},
	{4,5,6,7,8,9,10,11,13,14,15,16,17,18,19,21,22},
	{1,2,3,4,5,7,9,10,11,12,13,14,15,16,20,21},
	{4,5,6,7,8,9,10,11,13,14,15,16,17,18,19,21,22},
	{1,2,3,4,5,6,7,8,9,10,11,12,13,14,15,16,17,18,19,20,21,22},
	{1,2,3,4,5,6,7,8,9,10,11,12,13,14,15,16,17,18,19,20,21,22},
	{1,2,3,4,5,6,7,8,9,10,11,12,13,14,15,16,17,18,19,20,21,22},
	{1,2,3,4,5,7,9,10,11,12,13,14,15,16,20,21},
	{1,2,3,11,12,14,15,16,20,21},
	{4,5,7,9,10,11,13,14,15,16,21},
	{4,5,6,7,8,9,10,11,13,14,15,16,17,18,19,21,22},
	{4,5,6,7,8,9,10,11,13,14,15,16,17,18,19,21,22},
	{1,2,3,4,5,7,9,10,11,12,13,14,15,16,20,21},
	{}];

POTENTIAL_ACT = [{2,4,6,7,8,9,10,11,12,13,16,18,19,20,21,22,26},
	{2,4,6,7,8,9,10,11,12,13,16,18,19,20,21,22,26},
	{2,4,6,7,8,9,10,11,12,13,16,18,19,20,21,22,26},
	{2,3,4,5,6,7,8,9,10,11,12,13,14,15,16,17,18,19,20,21,23,24,25,26},
	{2,3,4,5,6,7,8,9,10,11,12,13,14,15,16,17,18,19,20,21,23,24,25,26},
	{3,4,5,8,9,10,13,15,17,18,19,20,24,25},
	{2,3,4,5,6,7,8,9,10,11,12,13,14,15,16,17,18,19,20,21,23,24,25,26},
	{3,4,5,8,9,10,13,15,17,18,19,20,24,25},
	{2,3,4,5,6,7,8,9,10,11,12,13,14,15,16,17,18,19,20,21,23,24,25,26},
	{2,3,5,6,7,8,9,11,12,14,15,16,17,18,19,20,21,23,24,25,26},
	{2,3,4,5,6,7,8,9,10,11,12,13,14,15,16,17,18,19,20,21,22,23,24,25,26},
	{2,4,6,7,8,9,10,11,12,13,16,18,19,20,21,22,26},
	{2,3,5,6,7,8,9,11,12,14,15,16,17,18,19,20,21,23,24,25,26},
	{2,3,4,5,6,7,8,9,10,11,12,13,14,15,16,17,18,19,20,21,22,23,24,25,26},
	{2,3,4,5,6,7,8,9,10,11,12,13,14,15,16,17,18,19,20,21,22,23,24,25,26},
	{2,3,4,5,6,7,8,9,10,11,12,13,14,15,16,17,18,19,20,21,22,23,24,25,26},
	{3,4,5,8,9,10,13,15,17,18,19,20,24,25},
	{3,4,5,8,9,10,13,15,17,18,19,20,24,25},
	{3,4,5,8,9,10,13,15,17,18,19,20,24,25},
	{2,4,6,7,8,9,10,11,12,13,16,18,19,20,21,22,26},
	{2,3,4,5,6,7,8,9,10,11,12,13,14,15,16,17,18,19,20,21,22,23,24,25,26},
	{3,4,5,8,9,10,13,15,17,18,19,20,24,25}];
